p cnf 722 2037
149 150 151 152 153 154 155 85 0
156 157 158 159 160 161 162 86 0
163 164 165 166 167 168 169 87 0
170 171 172 173 174 175 176 88 0
177 178 179 180 181 182 183 89 0
184 185 186 187 188 189 190 90 0
191 192 193 194 195 196 197 91 0
198 199 200 201 202 203 204 92 0
205 206 207 208 209 210 211 93 0
212 213 214 215 216 217 218 94 0
219 220 221 222 223 224 225 95 0
226 227 228 229 230 231 232 96 0
233 234 235 236 237 238 239 97 0
240 241 242 243 244 245 246 98 0
247 248 249 250 251 252 253 99 0
254 255 256 257 258 259 260 100 0
261 262 263 264 265 266 267 101 0
268 269 270 271 272 273 274 102 0
275 276 277 278 279 280 281 103 0
282 283 284 285 286 287 288 104 0
289 290 291 292 293 294 295 105 0
296 297 298 299 300 301 302 106 0
303 304 305 306 307 308 309 107 0
310 311 312 313 314 315 316 108 0
317 318 319 320 321 322 323 109 0
324 325 326 327 328 329 330 110 0
331 332 333 334 335 336 337 111 0
338 339 340 341 342 343 344 112 0
345 346 347 348 349 350 351 113 0
352 353 354 355 356 357 358 114 0
359 360 361 362 363 364 365 115 0
366 367 368 369 370 371 372 116 0
373 374 375 376 377 378 379 117 0
380 381 382 383 384 385 386 118 0
387 388 389 390 391 392 393 119 0
394 395 396 397 398 399 400 120 0
401 402 403 404 405 406 407 121 0
408 409 410 411 412 413 414 122 0
415 416 417 418 419 420 421 123 0
422 423 424 425 426 427 428 124 0
429 430 431 432 433 434 435 125 0
436 437 438 439 440 441 442 126 0
443 444 445 446 447 448 449 127 0
450 451 452 453 454 455 456 128 0
457 458 459 460 461 462 463 129 0
464 465 466 467 468 469 470 130 0
471 472 473 474 475 476 477 131 0
478 479 480 481 482 483 484 132 0
485 486 487 488 489 490 491 133 0
492 493 494 495 496 497 498 134 0
499 500 501 502 503 504 505 135 0
506 507 508 509 510 511 512 136 0
513 514 515 516 517 518 519 137 0
520 521 522 523 524 525 526 138 0
527 528 529 530 531 532 533 139 0
534 535 536 537 538 539 540 140 0
541 542 543 544 545 546 547 141 0
548 549 550 551 552 553 554 142 0
555 556 557 558 559 560 561 143 0
562 563 564 565 566 567 568 144 0
569 570 571 572 573 574 575 145 0
576 577 578 579 580 581 582 146 0
583 584 585 586 587 588 589 147 0
590 591 592 593 594 595 596 148 0
97 0
98 99 100 0
101 0
102 103 104 0
105 106 107 108 109 110 111 112 113 114 115 116 0
117 118 119 120 121 122 0
123 124 125 126 0
127 128 129 130 131 132 133 134 135 136 137 138 0
139 140 141 142 0
85 86 87 88 89 90 91 92 93 94 95 96 0
143 144 145 146 147 148 0
7 8 9 597 0
-597 -7 0
-597 -8 0
-597 -9 0
1 8 9 598 0
-598 -1 0
-598 -8 0
-598 -9 0
7 2 9 599 0
-599 -7 0
-599 -2 0
-599 -9 0
1 2 9 600 0
-600 -1 0
-600 -2 0
-600 -9 0
7 8 3 601 0
-601 -7 0
-601 -8 0
-601 -3 0
1 8 3 602 0
-602 -1 0
-602 -8 0
-602 -3 0
7 2 3 603 0
-603 -7 0
-603 -2 0
-603 -3 0
1 2 3 604 0
-604 -1 0
-604 -2 0
-604 -3 0
10 11 12 605 0
-605 -10 0
-605 -11 0
-605 -12 0
4 11 12 606 0
-606 -4 0
-606 -11 0
-606 -12 0
10 5 12 607 0
-607 -10 0
-607 -5 0
-607 -12 0
4 5 12 608 0
-608 -4 0
-608 -5 0
-608 -12 0
10 11 6 609 0
-609 -10 0
-609 -11 0
-609 -6 0
4 11 6 610 0
-610 -4 0
-610 -11 0
-610 -6 0
10 5 6 611 0
-611 -10 0
-611 -5 0
-611 -6 0
4 5 6 612 0
-612 -4 0
-612 -5 0
-612 -6 0
19 20 21 613 0
-613 -19 0
-613 -20 0
-613 -21 0
13 20 21 614 0
-614 -13 0
-614 -20 0
-614 -21 0
19 14 21 615 0
-615 -19 0
-615 -14 0
-615 -21 0
13 14 21 616 0
-616 -13 0
-616 -14 0
-616 -21 0
19 20 15 617 0
-617 -19 0
-617 -20 0
-617 -15 0
13 20 15 618 0
-618 -13 0
-618 -20 0
-618 -15 0
19 14 15 619 0
-619 -19 0
-619 -14 0
-619 -15 0
13 14 15 620 0
-620 -13 0
-620 -14 0
-620 -15 0
22 23 24 621 0
-621 -22 0
-621 -23 0
-621 -24 0
16 23 24 622 0
-622 -16 0
-622 -23 0
-622 -24 0
22 17 24 623 0
-623 -22 0
-623 -17 0
-623 -24 0
16 17 24 624 0
-624 -16 0
-624 -17 0
-624 -24 0
22 23 18 625 0
-625 -22 0
-625 -23 0
-625 -18 0
16 23 18 626 0
-626 -16 0
-626 -23 0
-626 -18 0
22 17 18 627 0
-627 -22 0
-627 -17 0
-627 -18 0
16 17 18 628 0
-628 -16 0
-628 -17 0
-628 -18 0
31 32 33 629 0
-629 -31 0
-629 -32 0
-629 -33 0
25 32 33 630 0
-630 -25 0
-630 -32 0
-630 -33 0
31 26 33 631 0
-631 -31 0
-631 -26 0
-631 -33 0
25 26 33 632 0
-632 -25 0
-632 -26 0
-632 -33 0
31 32 27 633 0
-633 -31 0
-633 -32 0
-633 -27 0
25 32 27 634 0
-634 -25 0
-634 -32 0
-634 -27 0
31 26 27 635 0
-635 -31 0
-635 -26 0
-635 -27 0
25 26 27 636 0
-636 -25 0
-636 -26 0
-636 -27 0
34 35 36 637 0
-637 -34 0
-637 -35 0
-637 -36 0
28 35 36 638 0
-638 -28 0
-638 -35 0
-638 -36 0
34 29 36 639 0
-639 -34 0
-639 -29 0
-639 -36 0
28 29 36 640 0
-640 -28 0
-640 -29 0
-640 -36 0
34 35 30 641 0
-641 -34 0
-641 -35 0
-641 -30 0
28 35 30 642 0
-642 -28 0
-642 -35 0
-642 -30 0
34 29 30 643 0
-643 -34 0
-643 -29 0
-643 -30 0
28 29 30 644 0
-644 -28 0
-644 -29 0
-644 -30 0
43 44 45 645 0
-645 -43 0
-645 -44 0
-645 -45 0
37 44 45 646 0
-646 -37 0
-646 -44 0
-646 -45 0
43 38 45 647 0
-647 -43 0
-647 -38 0
-647 -45 0
37 38 45 648 0
-648 -37 0
-648 -38 0
-648 -45 0
43 44 39 649 0
-649 -43 0
-649 -44 0
-649 -39 0
37 44 39 650 0
-650 -37 0
-650 -44 0
-650 -39 0
43 38 39 651 0
-651 -43 0
-651 -38 0
-651 -39 0
37 38 39 652 0
-652 -37 0
-652 -38 0
-652 -39 0
46 47 48 653 0
-653 -46 0
-653 -47 0
-653 -48 0
40 47 48 654 0
-654 -40 0
-654 -47 0
-654 -48 0
46 41 48 655 0
-655 -46 0
-655 -41 0
-655 -48 0
40 41 48 656 0
-656 -40 0
-656 -41 0
-656 -48 0
46 47 42 657 0
-657 -46 0
-657 -47 0
-657 -42 0
40 47 42 658 0
-658 -40 0
-658 -47 0
-658 -42 0
46 41 42 659 0
-659 -46 0
-659 -41 0
-659 -42 0
40 41 42 660 0
-660 -40 0
-660 -41 0
-660 -42 0
55 56 57 661 0
-661 -55 0
-661 -56 0
-661 -57 0
49 56 57 662 0
-662 -49 0
-662 -56 0
-662 -57 0
55 50 57 663 0
-663 -55 0
-663 -50 0
-663 -57 0
49 50 57 664 0
-664 -49 0
-664 -50 0
-664 -57 0
55 56 51 665 0
-665 -55 0
-665 -56 0
-665 -51 0
49 56 51 666 0
-666 -49 0
-666 -56 0
-666 -51 0
55 50 51 667 0
-667 -55 0
-667 -50 0
-667 -51 0
49 50 51 668 0
-668 -49 0
-668 -50 0
-668 -51 0
58 59 60 669 0
-669 -58 0
-669 -59 0
-669 -60 0
52 59 60 670 0
-670 -52 0
-670 -59 0
-670 -60 0
58 53 60 671 0
-671 -58 0
-671 -53 0
-671 -60 0
52 53 60 672 0
-672 -52 0
-672 -53 0
-672 -60 0
58 59 54 673 0
-673 -58 0
-673 -59 0
-673 -54 0
52 59 54 674 0
-674 -52 0
-674 -59 0
-674 -54 0
58 53 54 675 0
-675 -58 0
-675 -53 0
-675 -54 0
52 53 54 676 0
-676 -52 0
-676 -53 0
-676 -54 0
67 68 69 677 0
-677 -67 0
-677 -68 0
-677 -69 0
61 68 69 678 0
-678 -61 0
-678 -68 0
-678 -69 0
67 62 69 679 0
-679 -67 0
-679 -62 0
-679 -69 0
61 62 69 680 0
-680 -61 0
-680 -62 0
-680 -69 0
67 68 63 681 0
-681 -67 0
-681 -68 0
-681 -63 0
61 68 63 682 0
-682 -61 0
-682 -68 0
-682 -63 0
67 62 63 683 0
-683 -67 0
-683 -62 0
-683 -63 0
61 62 63 684 0
-684 -61 0
-684 -62 0
-684 -63 0
70 71 72 685 0
-685 -70 0
-685 -71 0
-685 -72 0
64 71 72 686 0
-686 -64 0
-686 -71 0
-686 -72 0
70 65 72 687 0
-687 -70 0
-687 -65 0
-687 -72 0
64 65 72 688 0
-688 -64 0
-688 -65 0
-688 -72 0
70 71 66 689 0
-689 -70 0
-689 -71 0
-689 -66 0
64 71 66 690 0
-690 -64 0
-690 -71 0
-690 -66 0
70 65 66 691 0
-691 -70 0
-691 -65 0
-691 -66 0
64 65 66 692 0
-692 -64 0
-692 -65 0
-692 -66 0
79 80 81 693 0
-693 -79 0
-693 -80 0
-693 -81 0
73 80 81 694 0
-694 -73 0
-694 -80 0
-694 -81 0
79 74 81 695 0
-695 -79 0
-695 -74 0
-695 -81 0
73 74 81 696 0
-696 -73 0
-696 -74 0
-696 -81 0
79 80 75 697 0
-697 -79 0
-697 -80 0
-697 -75 0
73 80 75 698 0
-698 -73 0
-698 -80 0
-698 -75 0
79 74 75 699 0
-699 -79 0
-699 -74 0
-699 -75 0
73 74 75 700 0
-700 -73 0
-700 -74 0
-700 -75 0
82 83 84 701 0
-701 -82 0
-701 -83 0
-701 -84 0
76 83 84 702 0
-702 -76 0
-702 -83 0
-702 -84 0
82 77 84 703 0
-703 -82 0
-703 -77 0
-703 -84 0
76 77 84 704 0
-704 -76 0
-704 -77 0
-704 -84 0
82 83 78 705 0
-705 -82 0
-705 -83 0
-705 -78 0
76 83 78 706 0
-706 -76 0
-706 -83 0
-706 -78 0
82 77 78 707 0
-707 -82 0
-707 -77 0
-707 -78 0
76 77 78 708 0
-708 -76 0
-708 -77 0
-708 -78 0
-599 -606 -85 0
599 -149 0
606 -149 0
-615 -622 -85 0
615 -150 0
622 -150 0
-631 -638 -85 0
631 -151 0
638 -151 0
-647 -654 -85 0
647 -152 0
654 -152 0
-663 -670 -85 0
663 -153 0
670 -153 0
-679 -686 -85 0
679 -154 0
686 -154 0
-695 -702 -85 0
695 -155 0
702 -155 0
-600 -605 -86 0
600 -156 0
605 -156 0
-616 -621 -86 0
616 -157 0
621 -157 0
-632 -637 -86 0
632 -158 0
637 -158 0
-648 -653 -86 0
648 -159 0
653 -159 0
-664 -669 -86 0
664 -160 0
669 -160 0
-680 -685 -86 0
680 -161 0
685 -161 0
-696 -701 -86 0
696 -162 0
701 -162 0
-602 -605 -87 0
602 -163 0
605 -163 0
-618 -621 -87 0
618 -164 0
621 -164 0
-634 -637 -87 0
634 -165 0
637 -165 0
-650 -653 -87 0
650 -166 0
653 -166 0
-666 -669 -87 0
666 -167 0
669 -167 0
-682 -685 -87 0
682 -168 0
685 -168 0
-698 -701 -87 0
698 -169 0
701 -169 0
-598 -606 -88 0
598 -170 0
606 -170 0
-614 -622 -88 0
614 -171 0
622 -171 0
-630 -638 -88 0
630 -172 0
638 -172 0
-646 -654 -88 0
646 -173 0
654 -173 0
-662 -670 -88 0
662 -174 0
670 -174 0
-678 -686 -88 0
678 -175 0
686 -175 0
-694 -702 -88 0
694 -176 0
702 -176 0
-598 -607 -89 0
598 -177 0
607 -177 0
-614 -623 -89 0
614 -178 0
623 -178 0
-630 -639 -89 0
630 -179 0
639 -179 0
-646 -655 -89 0
646 -180 0
655 -180 0
-662 -671 -89 0
662 -181 0
671 -181 0
-678 -687 -89 0
678 -182 0
687 -182 0
-694 -703 -89 0
694 -183 0
703 -183 0
-603 -605 -90 0
603 -184 0
605 -184 0
-619 -621 -90 0
619 -185 0
621 -185 0
-635 -637 -90 0
635 -186 0
637 -186 0
-651 -653 -90 0
651 -187 0
653 -187 0
-667 -669 -90 0
667 -188 0
669 -188 0
-683 -685 -90 0
683 -189 0
685 -189 0
-699 -701 -90 0
699 -190 0
701 -190 0
-599 -609 -91 0
599 -191 0
609 -191 0
-615 -625 -91 0
615 -192 0
625 -192 0
-631 -641 -91 0
631 -193 0
641 -193 0
-647 -657 -91 0
647 -194 0
657 -194 0
-663 -673 -91 0
663 -195 0
673 -195 0
-679 -689 -91 0
679 -196 0
689 -196 0
-695 -705 -91 0
695 -197 0
705 -197 0
-601 -607 -92 0
601 -198 0
607 -198 0
-617 -623 -92 0
617 -199 0
623 -199 0
-633 -639 -92 0
633 -200 0
639 -200 0
-649 -655 -92 0
649 -201 0
655 -201 0
-665 -671 -92 0
665 -202 0
671 -202 0
-681 -687 -92 0
681 -203 0
687 -203 0
-697 -703 -92 0
697 -204 0
703 -204 0
-601 -609 -93 0
601 -205 0
609 -205 0
-617 -625 -93 0
617 -206 0
625 -206 0
-633 -641 -93 0
633 -207 0
641 -207 0
-649 -657 -93 0
649 -208 0
657 -208 0
-665 -673 -93 0
665 -209 0
673 -209 0
-681 -689 -93 0
681 -210 0
689 -210 0
-697 -705 -93 0
697 -211 0
705 -211 0
-597 -608 -94 0
597 -212 0
608 -212 0
-613 -624 -94 0
613 -213 0
624 -213 0
-629 -640 -94 0
629 -214 0
640 -214 0
-645 -656 -94 0
645 -215 0
656 -215 0
-661 -672 -94 0
661 -216 0
672 -216 0
-677 -688 -94 0
677 -217 0
688 -217 0
-693 -704 -94 0
693 -218 0
704 -218 0
-597 -610 -95 0
597 -219 0
610 -219 0
-613 -626 -95 0
613 -220 0
626 -220 0
-629 -642 -95 0
629 -221 0
642 -221 0
-645 -658 -95 0
645 -222 0
658 -222 0
-661 -674 -95 0
661 -223 0
674 -223 0
-677 -690 -95 0
677 -224 0
690 -224 0
-693 -706 -95 0
693 -225 0
706 -225 0
-597 -611 -96 0
597 -226 0
611 -226 0
-613 -627 -96 0
613 -227 0
627 -227 0
-629 -643 -96 0
629 -228 0
643 -228 0
-645 -659 -96 0
645 -229 0
659 -229 0
-661 -675 -96 0
661 -230 0
675 -230 0
-677 -691 -96 0
677 -231 0
691 -231 0
-693 -707 -96 0
693 -232 0
707 -232 0
-597 -605 -97 0
597 -233 0
605 -233 0
-613 -621 -97 0
613 -234 0
621 -234 0
-629 -637 -97 0
629 -235 0
637 -235 0
-645 -653 -97 0
645 -236 0
653 -236 0
-661 -669 -97 0
661 -237 0
669 -237 0
-677 -685 -97 0
677 -238 0
685 -238 0
-693 -701 -97 0
693 -239 0
701 -239 0
-600 -611 -98 0
600 -240 0
611 -240 0
-616 -627 -98 0
616 -241 0
627 -241 0
-632 -643 -98 0
632 -242 0
643 -242 0
-648 -659 -98 0
648 -243 0
659 -243 0
-664 -675 -98 0
664 -244 0
675 -244 0
-680 -691 -98 0
680 -245 0
691 -245 0
-696 -707 -98 0
696 -246 0
707 -246 0
-602 -610 -99 0
602 -247 0
610 -247 0
-618 -626 -99 0
618 -248 0
626 -248 0
-634 -642 -99 0
634 -249 0
642 -249 0
-650 -658 -99 0
650 -250 0
658 -250 0
-666 -674 -99 0
666 -251 0
674 -251 0
-682 -690 -99 0
682 -252 0
690 -252 0
-698 -706 -99 0
698 -253 0
706 -253 0
-603 -608 -100 0
603 -254 0
608 -254 0
-619 -624 -100 0
619 -255 0
624 -255 0
-635 -640 -100 0
635 -256 0
640 -256 0
-651 -656 -100 0
651 -257 0
656 -257 0
-667 -672 -100 0
667 -258 0
672 -258 0
-683 -688 -100 0
683 -259 0
688 -259 0
-699 -704 -100 0
699 -260 0
704 -260 0
-604 -612 -101 0
604 -261 0
612 -261 0
-620 -628 -101 0
620 -262 0
628 -262 0
-636 -644 -101 0
636 -263 0
644 -263 0
-652 -660 -101 0
652 -264 0
660 -264 0
-668 -676 -101 0
668 -265 0
676 -265 0
-684 -692 -101 0
684 -266 0
692 -266 0
-700 -708 -101 0
700 -267 0
708 -267 0
-598 -609 -102 0
598 -268 0
609 -268 0
-614 -625 -102 0
614 -269 0
625 -269 0
-630 -641 -102 0
630 -270 0
641 -270 0
-646 -657 -102 0
646 -271 0
657 -271 0
-662 -673 -102 0
662 -272 0
673 -272 0
-678 -689 -102 0
678 -273 0
689 -273 0
-694 -705 -102 0
694 -274 0
705 -274 0
-599 -607 -103 0
599 -275 0
607 -275 0
-615 -623 -103 0
615 -276 0
623 -276 0
-631 -639 -103 0
631 -277 0
639 -277 0
-647 -655 -103 0
647 -278 0
655 -278 0
-663 -671 -103 0
663 -279 0
671 -279 0
-679 -687 -103 0
679 -280 0
687 -280 0
-695 -703 -103 0
695 -281 0
703 -281 0
-601 -606 -104 0
601 -282 0
606 -282 0
-617 -622 -104 0
617 -283 0
622 -283 0
-633 -638 -104 0
633 -284 0
638 -284 0
-649 -654 -104 0
649 -285 0
654 -285 0
-665 -670 -104 0
665 -286 0
670 -286 0
-681 -686 -104 0
681 -287 0
686 -287 0
-697 -702 -104 0
697 -288 0
702 -288 0
-600 -607 -105 0
600 -289 0
607 -289 0
-616 -623 -105 0
616 -290 0
623 -290 0
-632 -639 -105 0
632 -291 0
639 -291 0
-648 -655 -105 0
648 -292 0
655 -292 0
-664 -671 -105 0
664 -293 0
671 -293 0
-680 -687 -105 0
680 -294 0
687 -294 0
-696 -703 -105 0
696 -295 0
703 -295 0
-600 -609 -106 0
600 -296 0
609 -296 0
-616 -625 -106 0
616 -297 0
625 -297 0
-632 -641 -106 0
632 -298 0
641 -298 0
-648 -657 -106 0
648 -299 0
657 -299 0
-664 -673 -106 0
664 -300 0
673 -300 0
-680 -689 -106 0
680 -301 0
689 -301 0
-696 -705 -106 0
696 -302 0
705 -302 0
-602 -606 -107 0
602 -303 0
606 -303 0
-618 -622 -107 0
618 -304 0
622 -304 0
-634 -638 -107 0
634 -305 0
638 -305 0
-650 -654 -107 0
650 -306 0
654 -306 0
-666 -670 -107 0
666 -307 0
670 -307 0
-682 -686 -107 0
682 -308 0
686 -308 0
-698 -702 -107 0
698 -309 0
702 -309 0
-602 -609 -108 0
602 -310 0
609 -310 0
-618 -625 -108 0
618 -311 0
625 -311 0
-634 -641 -108 0
634 -312 0
641 -312 0
-650 -657 -108 0
650 -313 0
657 -313 0
-666 -673 -108 0
666 -314 0
673 -314 0
-682 -689 -108 0
682 -315 0
689 -315 0
-698 -705 -108 0
698 -316 0
705 -316 0
-598 -610 -109 0
598 -317 0
610 -317 0
-614 -626 -109 0
614 -318 0
626 -318 0
-630 -642 -109 0
630 -319 0
642 -319 0
-646 -658 -109 0
646 -320 0
658 -320 0
-662 -674 -109 0
662 -321 0
674 -321 0
-678 -690 -109 0
678 -322 0
690 -322 0
-694 -706 -109 0
694 -323 0
706 -323 0
-598 -611 -110 0
598 -324 0
611 -324 0
-614 -627 -110 0
614 -325 0
627 -325 0
-630 -643 -110 0
630 -326 0
643 -326 0
-646 -659 -110 0
646 -327 0
659 -327 0
-662 -675 -110 0
662 -328 0
675 -328 0
-678 -691 -110 0
678 -329 0
691 -329 0
-694 -707 -110 0
694 -330 0
707 -330 0
-603 -606 -111 0
603 -331 0
606 -331 0
-619 -622 -111 0
619 -332 0
622 -332 0
-635 -638 -111 0
635 -333 0
638 -333 0
-651 -654 -111 0
651 -334 0
654 -334 0
-667 -670 -111 0
667 -335 0
670 -335 0
-683 -686 -111 0
683 -336 0
686 -336 0
-699 -702 -111 0
699 -337 0
702 -337 0
-603 -607 -112 0
603 -338 0
607 -338 0
-619 -623 -112 0
619 -339 0
623 -339 0
-635 -639 -112 0
635 -340 0
639 -340 0
-651 -655 -112 0
651 -341 0
655 -341 0
-667 -671 -112 0
667 -342 0
671 -342 0
-683 -687 -112 0
683 -343 0
687 -343 0
-699 -703 -112 0
699 -344 0
703 -344 0
-599 -608 -113 0
599 -345 0
608 -345 0
-615 -624 -113 0
615 -346 0
624 -346 0
-631 -640 -113 0
631 -347 0
640 -347 0
-647 -656 -113 0
647 -348 0
656 -348 0
-663 -672 -113 0
663 -349 0
672 -349 0
-679 -688 -113 0
679 -350 0
688 -350 0
-695 -704 -113 0
695 -351 0
704 -351 0
-599 -611 -114 0
599 -352 0
611 -352 0
-615 -627 -114 0
615 -353 0
627 -353 0
-631 -643 -114 0
631 -354 0
643 -354 0
-647 -659 -114 0
647 -355 0
659 -355 0
-663 -675 -114 0
663 -356 0
675 -356 0
-679 -691 -114 0
679 -357 0
691 -357 0
-695 -707 -114 0
695 -358 0
707 -358 0
-601 -608 -115 0
601 -359 0
608 -359 0
-617 -624 -115 0
617 -360 0
624 -360 0
-633 -640 -115 0
633 -361 0
640 -361 0
-649 -656 -115 0
649 -362 0
656 -362 0
-665 -672 -115 0
665 -363 0
672 -363 0
-681 -688 -115 0
681 -364 0
688 -364 0
-697 -704 -115 0
697 -365 0
704 -365 0
-601 -610 -116 0
601 -366 0
610 -366 0
-617 -626 -116 0
617 -367 0
626 -367 0
-633 -642 -116 0
633 -368 0
642 -368 0
-649 -658 -116 0
649 -369 0
658 -369 0
-665 -674 -116 0
665 -370 0
674 -370 0
-681 -690 -116 0
681 -371 0
690 -371 0
-697 -706 -116 0
697 -372 0
706 -372 0
-604 -608 -117 0
604 -373 0
608 -373 0
-620 -624 -117 0
620 -374 0
624 -374 0
-636 -640 -117 0
636 -375 0
640 -375 0
-652 -656 -117 0
652 -376 0
656 -376 0
-668 -672 -117 0
668 -377 0
672 -377 0
-684 -688 -117 0
684 -378 0
688 -378 0
-700 -704 -117 0
700 -379 0
704 -379 0
-604 -610 -118 0
604 -380 0
610 -380 0
-620 -626 -118 0
620 -381 0
626 -381 0
-636 -642 -118 0
636 -382 0
642 -382 0
-652 -658 -118 0
652 -383 0
658 -383 0
-668 -674 -118 0
668 -384 0
674 -384 0
-684 -690 -118 0
684 -385 0
690 -385 0
-700 -706 -118 0
700 -386 0
706 -386 0
-604 -611 -119 0
604 -387 0
611 -387 0
-620 -627 -119 0
620 -388 0
627 -388 0
-636 -643 -119 0
636 -389 0
643 -389 0
-652 -659 -119 0
652 -390 0
659 -390 0
-668 -675 -119 0
668 -391 0
675 -391 0
-684 -691 -119 0
684 -392 0
691 -392 0
-700 -707 -119 0
700 -393 0
707 -393 0
-600 -612 -120 0
600 -394 0
612 -394 0
-616 -628 -120 0
616 -395 0
628 -395 0
-632 -644 -120 0
632 -396 0
644 -396 0
-648 -660 -120 0
648 -397 0
660 -397 0
-664 -676 -120 0
664 -398 0
676 -398 0
-680 -692 -120 0
680 -399 0
692 -399 0
-696 -708 -120 0
696 -400 0
708 -400 0
-602 -612 -121 0
602 -401 0
612 -401 0
-618 -628 -121 0
618 -402 0
628 -402 0
-634 -644 -121 0
634 -403 0
644 -403 0
-650 -660 -121 0
650 -404 0
660 -404 0
-666 -676 -121 0
666 -405 0
676 -405 0
-682 -692 -121 0
682 -406 0
692 -406 0
-698 -708 -121 0
698 -407 0
708 -407 0
-603 -612 -122 0
603 -408 0
612 -408 0
-619 -628 -122 0
619 -409 0
628 -409 0
-635 -644 -122 0
635 -410 0
644 -410 0
-651 -660 -122 0
651 -411 0
660 -411 0
-667 -676 -122 0
667 -412 0
676 -412 0
-683 -692 -122 0
683 -413 0
692 -413 0
-699 -708 -122 0
699 -414 0
708 -414 0
-600 -606 -123 0
600 -415 0
606 -415 0
-616 -622 -123 0
616 -416 0
622 -416 0
-632 -638 -123 0
632 -417 0
638 -417 0
-648 -654 -123 0
648 -418 0
654 -418 0
-664 -670 -123 0
664 -419 0
670 -419 0
-680 -686 -123 0
680 -420 0
686 -420 0
-696 -702 -123 0
696 -421 0
702 -421 0
-602 -607 -124 0
602 -422 0
607 -422 0
-618 -623 -124 0
618 -423 0
623 -423 0
-634 -639 -124 0
634 -424 0
639 -424 0
-650 -655 -124 0
650 -425 0
655 -425 0
-666 -671 -124 0
666 -426 0
671 -426 0
-682 -687 -124 0
682 -427 0
687 -427 0
-698 -703 -124 0
698 -428 0
703 -428 0
-603 -609 -125 0
603 -429 0
609 -429 0
-619 -625 -125 0
619 -430 0
625 -430 0
-635 -641 -125 0
635 -431 0
641 -431 0
-651 -657 -125 0
651 -432 0
657 -432 0
-667 -673 -125 0
667 -433 0
673 -433 0
-683 -689 -125 0
683 -434 0
689 -434 0
-699 -705 -125 0
699 -435 0
705 -435 0
-597 -612 -126 0
597 -436 0
612 -436 0
-613 -628 -126 0
613 -437 0
628 -437 0
-629 -644 -126 0
629 -438 0
644 -438 0
-645 -660 -126 0
645 -439 0
660 -439 0
-661 -676 -126 0
661 -440 0
676 -440 0
-677 -692 -126 0
677 -441 0
692 -441 0
-693 -708 -126 0
693 -442 0
708 -442 0
-604 -606 -127 0
604 -443 0
606 -443 0
-620 -622 -127 0
620 -444 0
622 -444 0
-636 -638 -127 0
636 -445 0
638 -445 0
-652 -654 -127 0
652 -446 0
654 -446 0
-668 -670 -127 0
668 -447 0
670 -447 0
-684 -686 -127 0
684 -448 0
686 -448 0
-700 -702 -127 0
700 -449 0
702 -449 0
-604 -607 -128 0
604 -450 0
607 -450 0
-620 -623 -128 0
620 -451 0
623 -451 0
-636 -639 -128 0
636 -452 0
639 -452 0
-652 -655 -128 0
652 -453 0
655 -453 0
-668 -671 -128 0
668 -454 0
671 -454 0
-684 -687 -128 0
684 -455 0
687 -455 0
-700 -703 -128 0
700 -456 0
703 -456 0
-604 -609 -129 0
604 -457 0
609 -457 0
-620 -625 -129 0
620 -458 0
625 -458 0
-636 -641 -129 0
636 -459 0
641 -459 0
-652 -657 -129 0
652 -460 0
657 -460 0
-668 -673 -129 0
668 -461 0
673 -461 0
-684 -689 -129 0
684 -462 0
689 -462 0
-700 -705 -129 0
700 -463 0
705 -463 0
-600 -608 -130 0
600 -464 0
608 -464 0
-616 -624 -130 0
616 -465 0
624 -465 0
-632 -640 -130 0
632 -466 0
640 -466 0
-648 -656 -130 0
648 -467 0
656 -467 0
-664 -672 -130 0
664 -468 0
672 -468 0
-680 -688 -130 0
680 -469 0
688 -469 0
-696 -704 -130 0
696 -470 0
704 -470 0
-600 -610 -131 0
600 -471 0
610 -471 0
-616 -626 -131 0
616 -472 0
626 -472 0
-632 -642 -131 0
632 -473 0
642 -473 0
-648 -658 -131 0
648 -474 0
658 -474 0
-664 -674 -131 0
664 -475 0
674 -475 0
-680 -690 -131 0
680 -476 0
690 -476 0
-696 -706 -131 0
696 -477 0
706 -477 0
-602 -608 -132 0
602 -478 0
608 -478 0
-618 -624 -132 0
618 -479 0
624 -479 0
-634 -640 -132 0
634 -480 0
640 -480 0
-650 -656 -132 0
650 -481 0
656 -481 0
-666 -672 -132 0
666 -482 0
672 -482 0
-682 -688 -132 0
682 -483 0
688 -483 0
-698 -704 -132 0
698 -484 0
704 -484 0
-602 -611 -133 0
602 -485 0
611 -485 0
-618 -627 -133 0
618 -486 0
627 -486 0
-634 -643 -133 0
634 -487 0
643 -487 0
-650 -659 -133 0
650 -488 0
659 -488 0
-666 -675 -133 0
666 -489 0
675 -489 0
-682 -691 -133 0
682 -490 0
691 -490 0
-698 -707 -133 0
698 -491 0
707 -491 0
-598 -612 -134 0
598 -492 0
612 -492 0
-614 -628 -134 0
614 -493 0
628 -493 0
-630 -644 -134 0
630 -494 0
644 -494 0
-646 -660 -134 0
646 -495 0
660 -495 0
-662 -676 -134 0
662 -496 0
676 -496 0
-678 -692 -134 0
678 -497 0
692 -497 0
-694 -708 -134 0
694 -498 0
708 -498 0
-603 -610 -135 0
603 -499 0
610 -499 0
-619 -626 -135 0
619 -500 0
626 -500 0
-635 -642 -135 0
635 -501 0
642 -501 0
-651 -658 -135 0
651 -502 0
658 -502 0
-667 -674 -135 0
667 -503 0
674 -503 0
-683 -690 -135 0
683 -504 0
690 -504 0
-699 -706 -135 0
699 -505 0
706 -505 0
-603 -611 -136 0
603 -506 0
611 -506 0
-619 -627 -136 0
619 -507 0
627 -507 0
-635 -643 -136 0
635 -508 0
643 -508 0
-651 -659 -136 0
651 -509 0
659 -509 0
-667 -675 -136 0
667 -510 0
675 -510 0
-683 -691 -136 0
683 -511 0
691 -511 0
-699 -707 -136 0
699 -512 0
707 -512 0
-599 -612 -137 0
599 -513 0
612 -513 0
-615 -628 -137 0
615 -514 0
628 -514 0
-631 -644 -137 0
631 -515 0
644 -515 0
-647 -660 -137 0
647 -516 0
660 -516 0
-663 -676 -137 0
663 -517 0
676 -517 0
-679 -692 -137 0
679 -518 0
692 -518 0
-695 -708 -137 0
695 -519 0
708 -519 0
-601 -612 -138 0
601 -520 0
612 -520 0
-617 -628 -138 0
617 -521 0
628 -521 0
-633 -644 -138 0
633 -522 0
644 -522 0
-649 -660 -138 0
649 -523 0
660 -523 0
-665 -676 -138 0
665 -524 0
676 -524 0
-681 -692 -138 0
681 -525 0
692 -525 0
-697 -708 -138 0
697 -526 0
708 -526 0
-604 -605 -139 0
604 -527 0
605 -527 0
-620 -621 -139 0
620 -528 0
621 -528 0
-636 -637 -139 0
636 -529 0
637 -529 0
-652 -653 -139 0
652 -530 0
653 -530 0
-668 -669 -139 0
668 -531 0
669 -531 0
-684 -685 -139 0
684 -532 0
685 -532 0
-700 -701 -139 0
700 -533 0
701 -533 0
-598 -608 -140 0
598 -534 0
608 -534 0
-614 -624 -140 0
614 -535 0
624 -535 0
-630 -640 -140 0
630 -536 0
640 -536 0
-646 -656 -140 0
646 -537 0
656 -537 0
-662 -672 -140 0
662 -538 0
672 -538 0
-678 -688 -140 0
678 -539 0
688 -539 0
-694 -704 -140 0
694 -540 0
704 -540 0
-599 -610 -141 0
599 -541 0
610 -541 0
-615 -626 -141 0
615 -542 0
626 -542 0
-631 -642 -141 0
631 -543 0
642 -543 0
-647 -658 -141 0
647 -544 0
658 -544 0
-663 -674 -141 0
663 -545 0
674 -545 0
-679 -690 -141 0
679 -546 0
690 -546 0
-695 -706 -141 0
695 -547 0
706 -547 0
-601 -611 -142 0
601 -548 0
611 -548 0
-617 -627 -142 0
617 -549 0
627 -549 0
-633 -643 -142 0
633 -550 0
643 -550 0
-649 -659 -142 0
649 -551 0
659 -551 0
-665 -675 -142 0
665 -552 0
675 -552 0
-681 -691 -142 0
681 -553 0
691 -553 0
-697 -707 -142 0
697 -554 0
707 -554 0
-598 -605 -143 0
598 -555 0
605 -555 0
-614 -621 -143 0
614 -556 0
621 -556 0
-630 -637 -143 0
630 -557 0
637 -557 0
-646 -653 -143 0
646 -558 0
653 -558 0
-662 -669 -143 0
662 -559 0
669 -559 0
-678 -685 -143 0
678 -560 0
685 -560 0
-694 -701 -143 0
694 -561 0
701 -561 0
-599 -605 -144 0
599 -562 0
605 -562 0
-615 -621 -144 0
615 -563 0
621 -563 0
-631 -637 -144 0
631 -564 0
637 -564 0
-647 -653 -144 0
647 -565 0
653 -565 0
-663 -669 -144 0
663 -566 0
669 -566 0
-679 -685 -144 0
679 -567 0
685 -567 0
-695 -701 -144 0
695 -568 0
701 -568 0
-601 -605 -145 0
601 -569 0
605 -569 0
-617 -621 -145 0
617 -570 0
621 -570 0
-633 -637 -145 0
633 -571 0
637 -571 0
-649 -653 -145 0
649 -572 0
653 -572 0
-665 -669 -145 0
665 -573 0
669 -573 0
-681 -685 -145 0
681 -574 0
685 -574 0
-697 -701 -145 0
697 -575 0
701 -575 0
-597 -606 -146 0
597 -576 0
606 -576 0
-613 -622 -146 0
613 -577 0
622 -577 0
-629 -638 -146 0
629 -578 0
638 -578 0
-645 -654 -146 0
645 -579 0
654 -579 0
-661 -670 -146 0
661 -580 0
670 -580 0
-677 -686 -146 0
677 -581 0
686 -581 0
-693 -702 -146 0
693 -582 0
702 -582 0
-597 -607 -147 0
597 -583 0
607 -583 0
-613 -623 -147 0
613 -584 0
623 -584 0
-629 -639 -147 0
629 -585 0
639 -585 0
-645 -655 -147 0
645 -586 0
655 -586 0
-661 -671 -147 0
661 -587 0
671 -587 0
-677 -687 -147 0
677 -588 0
687 -588 0
-693 -703 -147 0
693 -589 0
703 -589 0
-597 -609 -148 0
597 -590 0
609 -590 0
-613 -625 -148 0
613 -591 0
625 -591 0
-629 -641 -148 0
629 -592 0
641 -592 0
-645 -657 -148 0
645 -593 0
657 -593 0
-661 -673 -148 0
661 -594 0
673 -594 0
-677 -689 -148 0
677 -595 0
689 -595 0
-693 -705 -148 0
693 -596 0
705 -596 0
-99 -98 0
-100 -98 0
-100 -99 0
-103 -102 0
-104 -102 0
-104 -103 0
-105 -106 0
-105 -107 0
-106 -107 0
-105 -709 0
-106 -709 0
-107 -709 0
709 -108 0
709 -109 0
-108 -109 0
709 -710 0
-108 -710 0
-109 -710 0
710 -110 0
710 -111 0
-110 -111 0
710 -711 0
-110 -711 0
-111 -711 0
711 -112 0
711 -113 0
-112 -113 0
711 -712 0
-112 -712 0
-113 -712 0
-114 712 0
-115 712 0
-115 -114 0
-116 712 0
-116 -114 0
-116 -115 0
-117 -118 0
-117 -119 0
-118 -119 0
-117 -713 0
-118 -713 0
-119 -713 0
-120 713 0
-121 713 0
-121 -120 0
-122 713 0
-122 -120 0
-122 -121 0
-124 -123 0
-125 -123 0
-125 -124 0
-126 -123 0
-126 -124 0
-126 -125 0
-127 -128 0
-127 -129 0
-128 -129 0
-127 -714 0
-128 -714 0
-129 -714 0
714 -130 0
714 -131 0
-130 -131 0
714 -715 0
-130 -715 0
-131 -715 0
715 -132 0
715 -133 0
-132 -133 0
715 -716 0
-132 -716 0
-133 -716 0
716 -134 0
716 -135 0
-134 -135 0
716 -717 0
-134 -717 0
-135 -717 0
-136 717 0
-137 717 0
-137 -136 0
-138 717 0
-138 -136 0
-138 -137 0
-140 -139 0
-141 -139 0
-141 -140 0
-142 -139 0
-142 -140 0
-142 -141 0
-85 -86 0
-85 -87 0
-86 -87 0
-85 -718 0
-86 -718 0
-87 -718 0
718 -88 0
718 -89 0
-88 -89 0
718 -719 0
-88 -719 0
-89 -719 0
719 -90 0
719 -91 0
-90 -91 0
719 -720 0
-90 -720 0
-91 -720 0
720 -92 0
720 -93 0
-92 -93 0
720 -721 0
-92 -721 0
-93 -721 0
-94 721 0
-95 721 0
-95 -94 0
-96 721 0
-96 -94 0
-96 -95 0
-143 -144 0
-143 -145 0
-144 -145 0
-143 -722 0
-144 -722 0
-145 -722 0
-146 722 0
-147 722 0
-147 -146 0
-148 722 0
-148 -146 0
-148 -147 0
8 0
-2 0
-7 0
-9 0
-10 0
-11 0
-12 0
21 0
-15 0
-19 0
-20 0
-22 0
-23 0
-24 0
34 0
-28 0
-31 0
-32 0
-33 0
-35 0
-36 0
47 0
-41 0
-43 0
-44 0
-45 0
-46 0
-48 0
60 0
-54 0
-55 0
-56 0
-57 0
-58 0
-59 0
-118 0
-119 0
-120 0
